sat
(
  (define-fun Y () String
    "aabbbabbbaa")
  (define-fun I () String
    "")
  (define-fun W () String
    "")
  (define-fun T () String
    "")
  (define-fun N () String
    "aaaa")
  (define-fun S () String
    "")
  (define-fun J () String
    "")
  (define-fun Q () String
    "")
  (define-fun U () String
    "")
  (define-fun V () String
    "")
  (define-fun K () String
    "")
  (define-fun L () String
    "aa")
  (define-fun R () String
    "bbb")
)
